10	36
0	1	98
0	2	41
0	3	75
0	4	12
0	5	62
0	6	46
0	7	24
0	9	4
1	3	8
1	4	24
1	7	73
1	8	71
1	9	71
2	3	48
2	4	71
2	5	15
2	6	86
2	7	48
2	8	71
2	9	58
3	4	80
3	6	88
3	7	49
3	8	14
3	9	2
4	5	52
4	6	27
4	7	70
4	8	99
4	9	78
5	8	96
6	7	30
6	8	80
6	9	78
7	8	45
8	9	22
